n_nodes = 594;
M = 6701;
n_domains = 18;
domain_link_weights = [|0,6701,6701,358,6701,6701,6701,6701,6701,6701,6701,6701,6701,6701,6701,6701,6701,6701|6701,0,6701,6701,6701,479,344,264,6701,6701,6701,6701,6701,6701,6701,6701,6701,6701|6701,6701,0,6701,6701,6701,6701,6701,6701,972,6701,6701,6701,6701,1788,6701,6701,6701|6701,6701,6701,0,6701,6701,6701,6701,6701,6701,6701,6701,6701,6701,6701,6701,6701,6701|6701,6701,6701,6701,0,364,358,173,6701,6701,6701,6701,6701,6701,6701,6701,6701,6223|6701,6701,6701,6701,6701,0,6701,6701,6701,6701,6701,6701,6701,6701,6701,6701,6701,6701|6701,6701,6701,6701,6701,6701,0,6701,5585,6701,6701,6701,6701,6701,6701,6701,6701,6701|6701,6701,6701,6701,6701,6701,6701,0,6701,6701,6701,6701,6701,6701,6701,6701,6701,6701|6701,6701,6701,6701,6701,6701,6701,6701,0,6701,6701,6701,6701,6701,6701,1148,556,350|6701,6701,6701,6701,6701,6701,6701,6701,6701,0,6701,6701,6701,2562,6701,943,6701,852|6701,6701,6701,6701,6701,6701,6701,6701,6701,6701,0,1141,6701,6701,6701,2795,6701,6701|6701,6701,6701,6701,6701,6701,6701,6701,6701,6701,6701,0,492,6701,6701,2963,6701,3855|6701,6701,6701,6701,6701,6701,6701,6701,6701,6701,6701,6701,0,575,1995,2807,6701,6701|6701,6701,6701,6701,6701,6701,6701,6701,6701,6701,6701,6701,6701,0,1425,6701,6701,6701|6701,6701,6701,6701,6701,6701,6701,6701,6701,6701,6701,6701,6701,6701,0,1291,6701,1872|6701,6701,6701,6701,6701,6701,6701,6701,6701,6701,6701,6701,6701,6701,6701,0,704,916|6701,6701,6701,6701,6701,6701,6701,6701,6701,6701,6701,6701,6701,6701,6701,6701,0,6701|6701,6701,6701,6701,6701,6701,6701,6701,6701,6701,6701,6701,6701,6701,6701,6701,6701,0|];
num_node_links = 1183;
node_links = [|1,3|1,4|2,6|2,7|2,8|3,10|3,15|5,6|5,7|5,8|5,18|7,9|9,16|9,17|9,18|10,14|10,16|10,18|11,12|11,16|12,13|12,16|12,18|13,14|13,15|13,16|14,15|15,16|15,18|16,17|16,18|1,19|19,1|1,40|40,1|1,45|45,1|1,48|48,1|1,70|70,1|1,96|96,1|1,119|119,1|1,125|125,1|1,179|179,1|1,223|223,1|1,229|229,1|1,251|251,1|1,255|255,1|1,263|263,1|1,276|276,1|1,285|285,1|1,303|303,1|1,330|330,1|1,338|338,1|1,366|366,1|1,392|392,1|1,407|407,1|1,409|409,1|1,411|411,1|1,414|414,1|1,460|460,1|1,520|520,1|1,532|532,1|1,538|538,1|1,540|540,1|1,555|555,1|1,565|565,1|2,20|20,2|2,41|41,2|2,79|79,2|2,122|122,2|2,130|130,2|2,197|197,2|2,219|219,2|2,221|221,2|2,227|227,2|2,241|241,2|2,252|252,2|2,266|266,2|2,273|273,2|2,277|277,2|2,301|301,2|2,310|310,2|2,334|334,2|2,357|357,2|2,358|358,2|2,408|408,2|2,410|410,2|2,421|421,2|2,441|441,2|2,450|450,2|2,454|454,2|2,458|458,2|2,462|462,2|2,480|480,2|2,500|500,2|2,503|503,2|2,556|556,2|2,582|582,2|3,21|21,3|3,59|59,3|3,60|60,3|3,97|97,3|3,99|99,3|3,102|102,3|3,137|137,3|3,142|142,3|3,217|217,3|3,222|222,3|3,234|234,3|3,237|237,3|3,242|242,3|3,245|245,3|3,294|294,3|3,302|302,3|3,320|320,3|3,355|355,3|3,365|365,3|3,373|373,3|3,402|402,3|3,406|406,3|3,439|439,3|3,442|442,3|3,445|445,3|3,472|472,3|3,473|473,3|3,476|476,3|3,511|511,3|3,516|516,3|3,572|572,3|3,589|589,3|4,22|22,4|4,53|53,4|4,55|55,4|4,56|56,4|4,67|67,4|4,117|117,4|4,127|127,4|4,136|136,4|4,155|155,4|4,166|166,4|4,175|175,4|4,185|185,4|4,204|204,4|4,225|225,4|4,265|265,4|4,271|271,4|4,300|300,4|4,309|309,4|4,325|325,4|4,331|331,4|4,335|335,4|4,360|360,4|4,368|368,4|4,384|384,4|4,385|385,4|4,386|386,4|4,461|461,4|4,470|470,4|4,502|502,4|4,535|535,4|4,537|537,4|4,554|554,4|5,23|23,5|5,63|63,5|5,64|64,5|5,73|73,5|5,88|88,5|5,110|110,5|5,114|114,5|5,123|123,5|5,145|145,5|5,153|153,5|5,216|216,5|5,239|239,5|5,283|283,5|5,286|286,5|5,307|307,5|5,327|327,5|5,391|391,5|5,426|426,5|5,429|429,5|5,438|438,5|5,449|449,5|5,451|451,5|5,459|459,5|5,478|478,5|5,492|492,5|5,496|496,5|5,529|529,5|5,559|559,5|5,567|567,5|5,579|579,5|5,583|583,5|5,593|593,5|6,24|24,6|6,66|66,6|6,72|72,6|6,91|91,6|6,105|105,6|6,139|139,6|6,200|200,6|6,205|205,6|6,256|256,6|6,284|284,6|6,299|299,6|6,324|324,6|6,333|333,6|6,350|350,6|6,356|356,6|6,362|362,6|6,377|377,6|6,395|395,6|6,479|479,6|6,482|482,6|6,490|490,6|6,514|514,6|6,515|515,6|6,518|518,6|6,524|524,6|6,542|542,6|6,550|550,6|6,566|566,6|6,574|574,6|6,586|586,6|6,591|591,6|6,594|594,6|7,25|25,7|7,42|42,7|7,47|47,7|7,65|65,7|7,76|76,7|7,95|95,7|7,146|146,7|7,150|150,7|7,154|154,7|7,161|161,7|7,171|171,7|7,186|186,7|7,224|224,7|7,248|248,7|7,259|259,7|7,260|260,7|7,262|262,7|7,272|272,7|7,339|339,7|7,380|380,7|7,400|400,7|7,435|435,7|7,448|448,7|7,452|452,7|7,463|463,7|7,467|467,7|7,494|494,7|7,522|522,7|7,546|546,7|7,557|557,7|7,561|561,7|7,577|577,7|8,26|26,8|8,133|133,8|8,138|138,8|8,144|144,8|8,151|151,8|8,169|169,8|8,194|194,8|8,213|213,8|8,230|230,8|8,236|236,8|8,288|288,8|8,290|290,8|8,296|296,8|8,315|315,8|8,342|342,8|8,364|364,8|8,367|367,8|8,375|375,8|8,399|399,8|8,403|403,8|8,415|415,8|8,418|418,8|8,432|432,8|8,491|491,8|8,497|497,8|8,498|498,8|8,499|499,8|8,512|512,8|8,521|521,8|8,527|527,8|8,558|558,8|8,560|560,8|9,27|27,9|9,38|38,9|9,54|54,9|9,71|71,9|9,116|116,9|9,134|134,9|9,141|141,9|9,147|147,9|9,170|170,9|9,181|181,9|9,211|211,9|9,228|228,9|9,244|244,9|9,254|254,9|9,316|316,9|9,317|317,9|9,332|332,9|9,336|336,9|9,351|351,9|9,389|389,9|9,398|398,9|9,417|417,9|9,419|419,9|9,420|420,9|9,422|422,9|9,468|468,9|9,485|485,9|9,493|493,9|9,495|495,9|9,501|501,9|9,543|543,9|9,581|581,9|10,28|28,10|10,52|52,10|10,75|75,10|10,84|84,10|10,87|87,10|10,93|93,10|10,112|112,10|10,115|115,10|10,126|126,10|10,143|143,10|10,160|160,10|10,178|178,10|10,192|192,10|10,195|195,10|10,196|196,10|10,220|220,10|10,243|243,10|10,249|249,10|10,270|270,10|10,279|279,10|10,297|297,10|10,318|318,10|10,348|348,10|10,374|374,10|10,396|396,10|10,397|397,10|10,433|433,10|10,437|437,10|10,475|475,10|10,481|481,10|10,507|507,10|10,553|553,10|11,29|29,11|11,46|46,11|11,51|51,11|11,74|74,11|11,77|77,11|11,100|100,11|11,101|101,11|11,113|113,11|11,120|120,11|11,172|172,11|11,191|191,11|11,199|199,11|11,207|207,11|11,210|210,11|11,214|214,11|11,215|215,11|11,308|308,11|11,343|343,11|11,349|349,11|11,394|394,11|11,404|404,11|11,405|405,11|11,436|436,11|11,465|465,11|11,466|466,11|11,508|508,11|11,523|523,11|11,547|547,11|11,564|564,11|11,571|571,11|11,575|575,11|11,578|578,11|12,30|30,12|12,49|49,12|12,50|50,12|12,61|61,12|12,68|68,12|12,108|108,12|12,121|121,12|12,163|163,12|12,168|168,12|12,173|173,12|12,187|187,12|12,201|201,12|12,202|202,12|12,203|203,12|12,209|209,12|12,232|232,12|12,233|233,12|12,235|235,12|12,250|250,12|12,269|269,12|12,376|376,12|12,378|378,12|12,379|379,12|12,388|388,12|12,390|390,12|12,423|423,12|12,425|425,12|12,427|427,12|12,431|431,12|12,434|434,12|12,446|446,12|12,551|551,12|13,31|31,13|13,37|37,13|13,44|44,13|13,92|92,13|13,94|94,13|13,98|98,13|13,103|103,13|13,129|129,13|13,135|135,13|13,174|174,13|13,206|206,13|13,261|261,13|13,280|280,13|13,287|287,13|13,313|313,13|13,326|326,13|13,340|340,13|13,341|341,13|13,361|361,13|13,370|370,13|13,456|456,13|13,505|505,13|13,510|510,13|13,517|517,13|13,526|526,13|13,534|534,13|13,536|536,13|13,539|539,13|13,544|544,13|13,563|563,13|13,569|569,13|13,590|590,13|14,32|32,14|14,69|69,14|14,78|78,14|14,86|86,14|14,90|90,14|14,111|111,14|14,118|118,14|14,149|149,14|14,156|156,14|14,167|167,14|14,176|176,14|14,180|180,14|14,190|190,14|14,257|257,14|14,282|282,14|14,298|298,14|14,304|304,14|14,321|321,14|14,337|337,14|14,345|345,14|14,353|353,14|14,383|383,14|14,401|401,14|14,416|416,14|14,457|457,14|14,471|471,14|14,487|487,14|14,509|509,14|14,519|519,14|14,530|530,14|14,541|541,14|14,570|570,14|15,33|33,15|15,62|62,15|15,85|85,15|15,106|106,15|15,109|109,15|15,131|131,15|15,148|148,15|15,152|152,15|15,164|164,15|15,177|177,15|15,183|183,15|15,184|184,15|15,198|198,15|15,208|208,15|15,212|212,15|15,238|238,15|15,240|240,15|15,253|253,15|15,278|278,15|15,291|291,15|15,305|305,15|15,312|312,15|15,352|352,15|15,369|369,15|15,440|440,15|15,453|453,15|15,455|455,15|15,464|464,15|15,474|474,15|15,488|488,15|15,504|504,15|15,587|587,15|16,34|34,16|16,43|43,16|16,81|81,16|16,82|82,16|16,89|89,16|16,128|128,16|16,159|159,16|16,165|165,16|16,182|182,16|16,193|193,16|16,226|226,16|16,267|267,16|16,275|275,16|16,293|293,16|16,306|306,16|16,311|311,16|16,323|323,16|16,329|329,16|16,344|344,16|16,346|346,16|16,382|382,16|16,387|387,16|16,393|393,16|16,412|412,16|16,424|424,16|16,477|477,16|16,506|506,16|16,533|533,16|16,548|548,16|16,585|585,16|16,588|588,16|16,592|592,16|17,35|35,17|17,39|39,17|17,58|58,17|17,80|80,17|17,83|83,17|17,104|104,17|17,140|140,17|17,157|157,17|17,158|158,17|17,162|162,17|17,247|247,17|17,258|258,17|17,264|264,17|17,274|274,17|17,281|281,17|17,289|289,17|17,292|292,17|17,322|322,17|17,363|363,17|17,381|381,17|17,413|413,17|17,428|428,17|17,469|469,17|17,486|486,17|17,489|489,17|17,525|525,17|17,531|531,17|17,549|549,17|17,562|562,17|17,573|573,17|17,580|580,17|17,584|584,17|18,36|36,18|18,57|57,18|18,107|107,18|18,124|124,18|18,132|132,18|18,188|188,18|18,189|189,18|18,218|218,18|18,231|231,18|18,246|246,18|18,268|268,18|18,295|295,18|18,314|314,18|18,319|319,18|18,328|328,18|18,347|347,18|18,354|354,18|18,359|359,18|18,371|371,18|18,372|372,18|18,430|430,18|18,443|443,18|18,444|444,18|18,447|447,18|18,483|483,18|18,484|484,18|18,513|513,18|18,528|528,18|18,545|545,18|18,552|552,18|18,568|568,18|18,576|576,18|];
nodes = [|1,9,0,0,0,0,1,1|2,9,0,0,0,0,1,2|3,9,0,0,0,0,1,3|4,9,0,0,0,0,1,4|5,9,0,0,0,0,1,5|6,9,0,0,0,0,1,6|7,9,0,0,0,0,1,7|8,9,0,0,0,0,1,8|9,9,0,0,0,0,1,9|10,9,0,0,0,0,1,10|11,9,0,0,0,0,1,11|12,9,0,0,0,0,1,12|13,9,0,0,0,0,1,13|14,9,0,0,0,0,1,14|15,9,0,0,0,0,1,15|16,9,0,0,0,0,1,16|17,9,0,0,0,0,1,17|18,9,0,0,0,0,1,18|19,10,0,0,0,0,1,1|20,10,0,0,0,0,1,2|21,10,0,0,0,0,1,3|22,10,0,0,0,0,1,4|23,10,0,0,0,0,1,5|24,10,0,0,0,0,1,6|25,10,0,0,0,0,1,7|26,10,0,0,0,0,1,8|27,10,0,0,0,0,1,9|28,10,0,0,0,0,1,10|29,10,0,0,0,0,1,11|30,10,0,0,0,0,1,12|31,10,0,0,0,0,1,13|32,10,0,0,0,0,1,14|33,10,0,0,0,0,1,15|34,10,0,0,0,0,1,16|35,10,0,0,0,0,1,17|36,10,0,0,0,0,1,18|37,2,0,0,0,0,1,13|38,1,0,0,0,0,1,9|39,4,0,0,0,0,1,17|40,1,0,0,0,0,1,1|41,1,0,0,0,0,1,2|42,1,0,0,0,0,1,7|43,1,0,0,0,0,1,16|44,5,0,0,0,0,1,13|45,5,0,0,0,0,1,1|46,3,0,0,0,0,1,11|47,4,0,0,0,0,1,7|48,2,0,0,0,0,1,1|49,2,0,0,0,0,1,12|50,5,0,0,0,0,1,12|51,2,0,0,0,0,1,11|52,3,0,0,0,0,1,10|53,1,0,0,0,0,1,4|54,4,0,0,0,0,1,9|55,5,0,0,0,0,1,4|56,1,0,0,0,0,1,4|57,4,0,0,0,0,1,18|58,1,0,0,0,0,1,17|59,4,0,0,0,0,1,3|60,4,0,0,0,0,1,3|61,1,0,0,0,0,1,12|62,1,0,0,0,0,1,15|63,1,0,0,0,0,1,5|64,4,0,0,0,0,1,5|65,5,0,0,0,0,1,7|66,2,0,0,0,0,1,6|67,4,0,0,0,0,1,4|68,1,0,0,0,0,1,12|69,5,0,0,0,0,1,14|70,2,0,0,0,0,1,1|71,5,0,0,0,0,1,9|72,1,0,0,0,0,1,6|73,2,0,0,0,0,1,5|74,1,0,0,0,0,1,11|75,1,0,0,0,0,1,10|76,3,0,0,0,0,1,7|77,5,0,0,0,0,1,11|78,2,0,0,0,0,1,14|79,1,0,0,0,0,1,2|80,3,0,0,0,0,1,17|81,2,0,0,0,0,1,16|82,4,0,0,0,0,1,16|83,2,0,0,0,0,1,17|84,2,0,0,0,0,1,10|85,5,0,0,0,0,1,15|86,1,0,0,0,0,1,14|87,4,0,0,0,0,1,10|88,4,0,0,0,0,1,5|89,5,0,0,0,0,1,16|90,2,0,0,0,0,1,14|91,4,0,0,0,0,1,6|92,5,0,0,0,0,1,13|93,2,0,0,0,0,1,10|94,1,0,0,0,0,1,13|95,5,0,0,0,0,1,7|96,3,0,0,0,0,1,1|97,2,0,0,0,0,1,3|98,1,0,0,0,0,1,13|99,3,0,0,0,0,1,3|100,3,0,0,0,0,1,11|101,1,0,0,0,0,1,11|102,3,0,0,0,0,1,3|103,5,0,0,0,0,1,13|104,4,0,0,0,0,1,17|105,3,0,0,0,0,1,6|106,3,0,0,0,0,1,15|107,1,0,0,0,0,1,18|108,3,0,0,0,0,1,12|109,3,0,0,0,0,1,15|110,1,0,0,0,0,1,5|111,5,0,0,0,0,1,14|112,2,0,0,0,0,1,10|113,3,0,0,0,0,1,11|114,5,0,0,0,0,1,5|115,1,0,0,0,0,1,10|116,2,0,0,0,0,1,9|117,1,0,0,0,0,1,4|118,2,0,0,0,0,1,14|119,1,0,0,0,0,1,1|120,5,0,0,0,0,1,11|121,2,0,0,0,0,1,12|122,2,0,0,0,0,1,2|123,2,0,0,0,0,1,5|124,3,0,0,0,0,1,18|125,2,0,0,0,0,1,1|126,2,0,0,0,0,1,10|127,2,0,0,0,0,1,4|128,2,0,0,0,0,1,16|129,2,0,0,0,0,1,13|130,1,0,0,0,0,1,2|131,5,0,0,0,0,1,15|132,5,0,0,0,0,1,18|133,3,0,0,0,0,1,8|134,3,0,0,0,0,1,9|135,3,0,0,0,0,1,13|136,3,0,0,0,0,1,4|137,5,0,0,0,0,1,3|138,1,0,0,0,0,1,8|139,5,0,0,0,0,1,6|140,2,0,0,0,0,1,17|141,3,0,0,0,0,1,9|142,3,0,0,0,0,1,3|143,5,0,0,0,0,1,10|144,5,0,0,0,0,1,8|145,3,0,0,0,0,1,5|146,4,0,0,0,0,1,7|147,2,0,0,0,0,1,9|148,4,0,0,0,0,1,15|149,2,0,0,0,0,1,14|150,2,0,0,0,0,1,7|151,4,0,0,0,0,1,8|152,4,0,0,0,0,1,15|153,3,0,0,0,0,1,5|154,5,0,0,0,0,1,7|155,1,0,0,0,0,1,4|156,3,0,0,0,0,1,14|157,3,0,0,0,0,1,17|158,4,0,0,0,0,1,17|159,3,0,0,0,0,1,16|160,5,0,0,0,0,1,10|161,2,0,0,0,0,1,7|162,5,0,0,0,0,1,17|163,1,0,0,0,0,1,12|164,1,0,0,0,0,1,15|165,2,0,0,0,0,1,16|166,5,0,0,0,0,1,4|167,2,0,0,0,0,1,14|168,1,0,0,0,0,1,12|169,1,0,0,0,0,1,8|170,4,0,0,0,0,1,9|171,4,0,0,0,0,1,7|172,4,0,0,0,0,1,11|173,1,0,0,0,0,1,12|174,2,0,0,0,0,1,13|175,4,0,0,0,0,1,4|176,4,0,0,0,0,1,14|177,4,0,0,0,0,1,15|178,5,0,0,0,0,1,10|179,1,0,0,0,0,1,1|180,3,0,0,0,0,1,14|181,1,0,0,0,0,1,9|182,5,0,0,0,0,1,16|183,5,0,0,0,0,1,15|184,2,0,0,0,0,1,15|185,3,0,0,0,0,1,4|186,5,0,0,0,0,1,7|187,2,0,0,0,0,1,12|188,2,0,0,0,0,1,18|189,5,0,0,0,0,1,18|190,2,0,0,0,0,1,14|191,5,0,0,0,0,1,11|192,4,0,0,0,0,1,10|193,1,0,0,0,0,1,16|194,2,0,0,0,0,1,8|195,5,0,0,0,0,1,10|196,2,0,0,0,0,1,10|197,2,0,0,0,0,1,2|198,2,0,0,0,0,1,15|199,3,0,0,0,0,1,11|200,1,0,0,0,0,1,6|201,1,0,0,0,0,1,12|202,1,0,0,0,0,1,12|203,2,0,0,0,0,1,12|204,3,0,0,0,0,1,4|205,2,0,0,0,0,1,6|206,2,0,0,0,0,1,13|207,3,0,0,0,0,1,11|208,5,0,0,0,0,1,15|209,3,0,0,0,0,1,12|210,3,0,0,0,0,1,11|211,1,0,0,0,0,1,9|212,2,0,0,0,0,1,15|213,3,0,0,0,0,1,8|214,3,0,0,0,0,1,11|215,5,0,0,0,0,1,11|216,2,0,0,0,0,1,5|217,3,0,0,0,0,1,3|218,4,0,0,0,0,1,18|219,4,0,0,0,0,1,2|220,2,0,0,0,0,1,10|221,4,0,0,0,0,1,2|222,2,0,0,0,0,1,3|223,4,0,0,0,0,1,1|224,2,0,0,0,0,1,7|225,4,0,0,0,0,1,4|226,5,0,0,0,0,1,16|227,3,0,0,0,0,1,2|228,5,0,0,0,0,1,9|229,4,0,0,0,0,1,1|230,3,0,0,0,0,1,8|231,2,0,0,0,0,1,18|232,4,0,0,0,0,1,12|233,3,0,0,0,0,1,12|234,3,0,0,0,0,1,3|235,4,0,0,0,0,1,12|236,2,0,0,0,0,1,8|237,1,0,0,0,0,1,3|238,5,0,0,0,0,1,15|239,5,0,0,0,0,1,5|240,2,0,0,0,0,1,15|241,1,0,0,0,0,1,2|242,4,0,0,0,0,1,3|243,2,0,0,0,0,1,10|244,4,0,0,0,0,1,9|245,1,0,0,0,0,1,3|246,1,0,0,0,0,1,18|247,4,0,0,0,0,1,17|248,2,0,0,0,0,1,7|249,2,0,0,0,0,1,10|250,2,0,0,0,0,1,12|251,5,0,0,0,0,1,1|252,3,0,0,0,0,1,2|253,4,0,0,0,0,1,15|254,1,0,0,0,0,1,9|255,2,0,0,0,0,1,1|256,2,0,0,0,0,1,6|257,1,0,0,0,0,1,14|258,1,0,0,0,0,1,17|259,4,0,0,0,0,1,7|260,2,0,0,0,0,1,7|261,1,0,0,0,0,1,13|262,5,0,0,0,0,1,7|263,3,0,0,0,0,1,1|264,1,0,0,0,0,1,17|265,4,0,0,0,0,1,4|266,2,0,0,0,0,1,2|267,2,0,0,0,0,1,16|268,2,0,0,0,0,1,18|269,1,0,0,0,0,1,12|270,2,0,0,0,0,1,10|271,1,0,0,0,0,1,4|272,2,0,0,0,0,1,7|273,5,0,0,0,0,1,2|274,1,0,0,0,0,1,17|275,2,0,0,0,0,1,16|276,5,0,0,0,0,1,1|277,5,0,0,0,0,1,2|278,5,0,0,0,0,1,15|279,1,0,0,0,0,1,10|280,3,0,0,0,0,1,13|281,5,0,0,0,0,1,17|282,5,0,0,0,0,1,14|283,1,0,0,0,0,1,5|284,5,0,0,0,0,1,6|285,2,0,0,0,0,1,1|286,2,0,0,0,0,1,5|287,5,0,0,0,0,1,13|288,4,0,0,0,0,1,8|289,4,0,0,0,0,1,17|290,3,0,0,0,0,1,8|291,5,0,0,0,0,1,15|292,3,0,0,0,0,1,17|293,1,0,0,0,0,1,16|294,1,0,0,0,0,1,3|295,4,0,0,0,0,1,18|296,4,0,0,0,0,1,8|297,4,0,0,0,0,1,10|298,2,0,0,0,0,1,14|299,3,0,0,0,0,1,6|300,1,0,0,0,0,1,4|301,5,0,0,0,0,1,2|302,3,0,0,0,0,1,3|303,3,0,0,0,0,1,1|304,3,0,0,0,0,1,14|305,3,0,0,0,0,1,15|306,2,0,0,0,0,1,16|307,4,0,0,0,0,1,5|308,5,0,0,0,0,1,11|309,5,0,0,0,0,1,4|310,1,0,0,0,0,1,2|311,5,0,0,0,0,1,16|312,2,0,0,0,0,1,15|313,1,0,0,0,0,1,13|314,5,0,0,0,0,1,18|315,2,0,0,0,0,1,8|316,3,0,0,0,0,1,9|317,3,0,0,0,0,1,9|318,5,0,0,0,0,1,10|319,2,0,0,0,0,1,18|320,4,0,0,0,0,1,3|321,3,0,0,0,0,1,14|322,1,0,0,0,0,1,17|323,3,0,0,0,0,1,16|324,2,0,0,0,0,1,6|325,1,0,0,0,0,1,4|326,4,0,0,0,0,1,13|327,4,0,0,0,0,1,5|328,4,0,0,0,0,1,18|329,5,0,0,0,0,1,16|330,1,0,0,0,0,1,1|331,2,0,0,0,0,1,4|332,4,0,0,0,0,1,9|333,5,0,0,0,0,1,6|334,3,0,0,0,0,1,2|335,4,0,0,0,0,1,4|336,4,0,0,0,0,1,9|337,1,0,0,0,0,1,14|338,4,0,0,0,0,1,1|339,2,0,0,0,0,1,7|340,2,0,0,0,0,1,13|341,4,0,0,0,0,1,13|342,3,0,0,0,0,1,8|343,5,0,0,0,0,1,11|344,3,0,0,0,0,1,16|345,4,0,0,0,0,1,14|346,5,0,0,0,0,1,16|347,1,0,0,0,0,1,18|348,5,0,0,0,0,1,10|349,1,0,0,0,0,1,11|350,3,0,0,0,0,1,6|351,2,0,0,0,0,1,9|352,5,0,0,0,0,1,15|353,5,0,0,0,0,1,14|354,3,0,0,0,0,1,18|355,4,0,0,0,0,1,3|356,3,0,0,0,0,1,6|357,5,0,0,0,0,1,2|358,5,0,0,0,0,1,2|359,1,0,0,0,0,1,18|360,3,0,0,0,0,1,4|361,3,0,0,0,0,1,13|362,3,0,0,0,0,1,6|363,1,0,0,0,0,1,17|364,2,0,0,0,0,1,8|365,4,0,0,0,0,1,3|366,1,0,0,0,0,1,1|367,2,0,0,0,0,1,8|368,4,0,0,0,0,1,4|369,4,0,0,0,0,1,15|370,3,0,0,0,0,1,13|371,4,0,0,0,0,1,18|372,4,0,0,0,0,1,18|373,5,0,0,0,0,1,3|374,5,0,0,0,0,1,10|375,5,0,0,0,0,1,8|376,3,0,0,0,0,1,12|377,4,0,0,0,0,1,6|378,1,0,0,0,0,1,12|379,3,0,0,0,0,1,12|380,3,0,0,0,0,1,7|381,4,0,0,0,0,1,17|382,4,0,0,0,0,1,16|383,4,0,0,0,0,1,14|384,2,0,0,0,0,1,4|385,5,0,0,0,0,1,4|386,1,0,0,0,0,1,4|387,3,0,0,0,0,1,16|388,4,0,0,0,0,1,12|389,2,0,0,0,0,1,9|390,4,0,0,0,0,1,12|391,3,0,0,0,0,1,5|392,4,0,0,0,0,1,1|393,4,0,0,0,0,1,16|394,3,0,0,0,0,1,11|395,2,0,0,0,0,1,6|396,3,0,0,0,0,1,10|397,3,0,0,0,0,1,10|398,3,0,0,0,0,1,9|399,3,0,0,0,0,1,8|400,3,0,0,0,0,1,7|401,5,0,0,0,0,1,14|402,3,0,0,0,0,1,3|403,1,0,0,0,0,1,8|404,5,0,0,0,0,1,11|405,1,0,0,0,0,1,11|406,2,0,0,0,0,1,3|407,4,0,0,0,0,1,1|408,2,0,0,0,0,1,2|409,2,0,0,0,0,1,1|410,2,0,0,0,0,1,2|411,3,0,0,0,0,1,1|412,2,0,0,0,0,1,16|413,2,0,0,0,0,1,17|414,2,0,0,0,0,1,1|415,2,0,0,0,0,1,8|416,2,0,0,0,0,1,14|417,5,0,0,0,0,1,9|418,2,0,0,0,0,1,8|419,2,0,0,0,0,1,9|420,2,0,0,0,0,1,9|421,1,0,0,0,0,1,2|422,1,0,0,0,0,1,9|423,1,0,0,0,0,1,12|424,5,0,0,0,0,1,16|425,2,0,0,0,0,1,12|426,3,0,0,0,0,1,5|427,2,0,0,0,0,1,12|428,4,0,0,0,0,1,17|429,2,0,0,0,0,1,5|430,1,0,0,0,0,1,18|431,2,0,0,0,0,1,12|432,5,0,0,0,0,1,8|433,1,0,0,0,0,1,10|434,1,0,0,0,0,1,12|435,5,0,0,0,0,1,7|436,1,0,0,0,0,1,11|437,2,0,0,0,0,1,10|438,2,0,0,0,0,1,5|439,3,0,0,0,0,1,3|440,4,0,0,0,0,1,15|441,4,0,0,0,0,1,2|442,5,0,0,0,0,1,3|443,4,0,0,0,0,1,18|444,1,0,0,0,0,1,18|445,1,0,0,0,0,1,3|446,3,0,0,0,0,1,12|447,3,0,0,0,0,1,18|448,4,0,0,0,0,1,7|449,4,0,0,0,0,1,5|450,2,0,0,0,0,1,2|451,2,0,0,0,0,1,5|452,1,0,0,0,0,1,7|453,4,0,0,0,0,1,15|454,3,0,0,0,0,1,2|455,1,0,0,0,0,1,15|456,3,0,0,0,0,1,13|457,5,0,0,0,0,1,14|458,1,0,0,0,0,1,2|459,5,0,0,0,0,1,5|460,5,0,0,0,0,1,1|461,2,0,0,0,0,1,4|462,3,0,0,0,0,1,2|463,1,0,0,0,0,1,7|464,3,0,0,0,0,1,15|465,3,0,0,0,0,1,11|466,4,0,0,0,0,1,11|467,2,0,0,0,0,1,7|468,1,0,0,0,0,1,9|469,1,0,0,0,0,1,17|470,2,0,0,0,0,1,4|471,5,0,0,0,0,1,14|472,3,0,0,0,0,1,3|473,4,0,0,0,0,1,3|474,5,0,0,0,0,1,15|475,2,0,0,0,0,1,10|476,4,0,0,0,0,1,3|477,2,0,0,0,0,1,16|478,4,0,0,0,0,1,5|479,5,0,0,0,0,1,6|480,3,0,0,0,0,1,2|481,5,0,0,0,0,1,10|482,3,0,0,0,0,1,6|483,2,0,0,0,0,1,18|484,3,0,0,0,0,1,18|485,5,0,0,0,0,1,9|486,3,0,0,0,0,1,17|487,1,0,0,0,0,1,14|488,4,0,0,0,0,1,15|489,5,0,0,0,0,1,17|490,4,0,0,0,0,1,6|491,4,0,0,0,0,1,8|492,5,0,0,0,0,1,5|493,3,0,0,0,0,1,9|494,4,0,0,0,0,1,7|495,5,0,0,0,0,1,9|496,5,0,0,0,0,1,5|497,3,0,0,0,0,1,8|498,5,0,0,0,0,1,8|499,5,0,0,0,0,1,8|500,2,0,0,0,0,1,2|501,4,0,0,0,0,1,9|502,2,0,0,0,0,1,4|503,3,0,0,0,0,1,2|504,2,0,0,0,0,1,15|505,5,0,0,0,0,1,13|506,2,0,0,0,0,1,16|507,2,0,0,0,0,1,10|508,4,0,0,0,0,1,11|509,5,0,0,0,0,1,14|510,3,0,0,0,0,1,13|511,1,0,0,0,0,1,3|512,3,0,0,0,0,1,8|513,5,0,0,0,0,1,18|514,5,0,0,0,0,1,6|515,5,0,0,0,0,1,6|516,3,0,0,0,0,1,3|517,1,0,0,0,0,1,13|518,1,0,0,0,0,1,6|519,4,0,0,0,0,1,14|520,4,0,0,0,0,1,1|521,1,0,0,0,0,1,8|522,2,0,0,0,0,1,7|523,1,0,0,0,0,1,11|524,3,0,0,0,0,1,6|525,3,0,0,0,0,1,17|526,4,0,0,0,0,1,13|527,5,0,0,0,0,1,8|528,2,0,0,0,0,1,18|529,3,0,0,0,0,1,5|530,1,0,0,0,0,1,14|531,4,0,0,0,0,1,17|532,1,0,0,0,0,1,1|533,4,0,0,0,0,1,16|534,2,0,0,0,0,1,13|535,3,0,0,0,0,1,4|536,5,0,0,0,0,1,13|537,1,0,0,0,0,1,4|538,5,0,0,0,0,1,1|539,3,0,0,0,0,1,13|540,4,0,0,0,0,1,1|541,5,0,0,0,0,1,14|542,1,0,0,0,0,1,6|543,5,0,0,0,0,1,9|544,4,0,0,0,0,1,13|545,1,0,0,0,0,1,18|546,4,0,0,0,0,1,7|547,2,0,0,0,0,1,11|548,4,0,0,0,0,1,16|549,4,0,0,0,0,1,17|550,5,0,0,0,0,1,6|551,2,0,0,0,0,1,12|552,2,0,0,0,0,1,18|553,2,0,0,0,0,1,10|554,1,0,0,0,0,1,4|555,1,0,0,0,0,1,1|556,5,0,0,0,0,1,2|557,3,0,0,0,0,1,7|558,5,0,0,0,0,1,8|559,2,0,0,0,0,1,5|560,5,0,0,0,0,1,8|561,4,0,0,0,0,1,7|562,4,0,0,0,0,1,17|563,4,0,0,0,0,1,13|564,2,0,0,0,0,1,11|565,2,0,0,0,0,1,1|566,3,0,0,0,0,1,6|567,1,0,0,0,0,1,5|568,5,0,0,0,0,1,18|569,3,0,0,0,0,1,13|570,3,0,0,0,0,1,14|571,4,0,0,0,0,1,11|572,3,0,0,0,0,1,3|573,4,0,0,0,0,1,17|574,1,0,0,0,0,1,6|575,2,0,0,0,0,1,11|576,3,0,0,0,0,1,18|577,1,0,0,0,0,1,7|578,5,0,0,0,0,1,11|579,3,0,0,0,0,1,5|580,3,0,0,0,0,1,17|581,5,0,0,0,0,1,9|582,5,0,0,0,0,1,2|583,1,0,0,0,0,1,5|584,4,0,0,0,0,1,17|585,4,0,0,0,0,1,16|586,5,0,0,0,0,1,6|587,5,0,0,0,0,1,15|588,2,0,0,0,0,1,16|589,1,0,0,0,0,1,3|590,2,0,0,0,0,1,13|591,1,0,0,0,0,1,6|592,4,0,0,0,0,1,16|593,5,0,0,0,0,1,5|594,4,0,0,0,0,1,6|];
